#from Caballero, Grossmann (Design of distillation sequences: from conventional to fully thermally coupled distillation systems, Computers & Chemical Engineering)
#example 2 -reduced(2,3,4)

set C := 1, 2, 3;

param alpha := 1 3.08 2 1.34 3 1.0;
